(set-logic QF_LRA)
(declare-fun X0 () Real )
(declare-fun Y0 () Real )
(declare-fun X1 () Real )
(declare-fun Y1 () Real )
(declare-fun X2 () Real )
(declare-fun Y2 () Real )
(declare-fun X3 () Real )
(declare-fun Y3 () Real )
(declare-fun X4 () Real )
(declare-fun Y4 () Real )
(declare-fun X5 () Real )
(declare-fun Y5 () Real )
(declare-fun X6 () Real )
(declare-fun Y6 () Real )
(declare-fun X7 () Real )
(declare-fun Y7 () Real )
(declare-fun X8 () Real )
(declare-fun Y8 () Real )
(declare-fun X9 () Real )
(declare-fun Y9 () Real )
(declare-fun X10 () Real )
(declare-fun Y10 () Real )
(declare-fun X11 () Real )
(declare-fun Y11 () Real )
(declare-fun Z () Real )
(assert ( and  
( or ( <= ( + X0 13 ) X1 )  ( <= ( + X1 23 ) X0 )  ( <= ( + Y0 9 ) Y1 )  ( <= ( + Y1 5 ) Y0 )  )
( or ( <= ( + X0 13 ) X2 )  ( <= ( + X2 84 ) X0 )  ( <= ( + Y0 9 ) Y2 )  ( <= ( + Y2 28 ) Y0 )  )
( or ( <= ( + X0 13 ) X3 )  ( <= ( + X3 13 ) X0 )  ( <= ( + Y0 9 ) Y3 )  ( <= ( + Y3 48 ) Y0 )  )
( or ( <= ( + X0 13 ) X4 )  ( <= ( + X4 33 ) X0 )  ( <= ( + Y0 9 ) Y4 )  ( <= ( + Y4 63 ) Y0 )  )
( or ( <= ( + X0 13 ) X5 )  ( <= ( + X5 71 ) X0 )  ( <= ( + Y0 9 ) Y5 )  ( <= ( + Y5 76 ) Y0 )  )
( or ( <= ( + X0 13 ) X6 )  ( <= ( + X6 25 ) X0 )  ( <= ( + Y0 9 ) Y6 )  ( <= ( + Y6 76 ) Y0 )  )
( or ( <= ( + X0 13 ) X7 )  ( <= ( + X7 63 ) X0 )  ( <= ( + Y0 9 ) Y7 )  ( <= ( + Y7 13 ) Y0 )  )
( or ( <= ( + X0 13 ) X8 )  ( <= ( + X8 10 ) X0 )  ( <= ( + Y0 9 ) Y8 )  ( <= ( + Y8 82 ) Y0 )  )
( or ( <= ( + X0 13 ) X9 )  ( <= ( + X9 61 ) X0 )  ( <= ( + Y0 9 ) Y9 )  ( <= ( + Y9 32 ) Y0 )  )
( or ( <= ( + X0 13 ) X10 )  ( <= ( + X10 82 ) X0 )  ( <= ( + Y0 9 ) Y10 )  ( <= ( + Y10 31 ) Y0 )  )
( or ( <= ( + X0 13 ) X11 )  ( <= ( + X11 84 ) X0 )  ( <= ( + Y0 9 ) Y11 )  ( <= ( + Y11 92 ) Y0 )  )
( or ( <= ( + X1 23 ) X2 )  ( <= ( + X2 84 ) X1 )  ( <= ( + Y1 5 ) Y2 )  ( <= ( + Y2 28 ) Y1 )  )
( or ( <= ( + X1 23 ) X3 )  ( <= ( + X3 13 ) X1 )  ( <= ( + Y1 5 ) Y3 )  ( <= ( + Y3 48 ) Y1 )  )
( or ( <= ( + X1 23 ) X4 )  ( <= ( + X4 33 ) X1 )  ( <= ( + Y1 5 ) Y4 )  ( <= ( + Y4 63 ) Y1 )  )
( or ( <= ( + X1 23 ) X5 )  ( <= ( + X5 71 ) X1 )  ( <= ( + Y1 5 ) Y5 )  ( <= ( + Y5 76 ) Y1 )  )
( or ( <= ( + X1 23 ) X6 )  ( <= ( + X6 25 ) X1 )  ( <= ( + Y1 5 ) Y6 )  ( <= ( + Y6 76 ) Y1 )  )
( or ( <= ( + X1 23 ) X7 )  ( <= ( + X7 63 ) X1 )  ( <= ( + Y1 5 ) Y7 )  ( <= ( + Y7 13 ) Y1 )  )
( or ( <= ( + X1 23 ) X8 )  ( <= ( + X8 10 ) X1 )  ( <= ( + Y1 5 ) Y8 )  ( <= ( + Y8 82 ) Y1 )  )
( or ( <= ( + X1 23 ) X9 )  ( <= ( + X9 61 ) X1 )  ( <= ( + Y1 5 ) Y9 )  ( <= ( + Y9 32 ) Y1 )  )
( or ( <= ( + X1 23 ) X10 )  ( <= ( + X10 82 ) X1 )  ( <= ( + Y1 5 ) Y10 )  ( <= ( + Y10 31 ) Y1 )  )
( or ( <= ( + X1 23 ) X11 )  ( <= ( + X11 84 ) X1 )  ( <= ( + Y1 5 ) Y11 )  ( <= ( + Y11 92 ) Y1 )  )
( or ( <= ( + X2 84 ) X3 )  ( <= ( + X3 13 ) X2 )  ( <= ( + Y2 28 ) Y3 )  ( <= ( + Y3 48 ) Y2 )  )
( or ( <= ( + X2 84 ) X4 )  ( <= ( + X4 33 ) X2 )  ( <= ( + Y2 28 ) Y4 )  ( <= ( + Y4 63 ) Y2 )  )
( or ( <= ( + X2 84 ) X5 )  ( <= ( + X5 71 ) X2 )  ( <= ( + Y2 28 ) Y5 )  ( <= ( + Y5 76 ) Y2 )  )
( or ( <= ( + X2 84 ) X6 )  ( <= ( + X6 25 ) X2 )  ( <= ( + Y2 28 ) Y6 )  ( <= ( + Y6 76 ) Y2 )  )
( or ( <= ( + X2 84 ) X7 )  ( <= ( + X7 63 ) X2 )  ( <= ( + Y2 28 ) Y7 )  ( <= ( + Y7 13 ) Y2 )  )
( or ( <= ( + X2 84 ) X8 )  ( <= ( + X8 10 ) X2 )  ( <= ( + Y2 28 ) Y8 )  ( <= ( + Y8 82 ) Y2 )  )
( or ( <= ( + X2 84 ) X9 )  ( <= ( + X9 61 ) X2 )  ( <= ( + Y2 28 ) Y9 )  ( <= ( + Y9 32 ) Y2 )  )
( or ( <= ( + X2 84 ) X10 )  ( <= ( + X10 82 ) X2 )  ( <= ( + Y2 28 ) Y10 )  ( <= ( + Y10 31 ) Y2 )  )
( or ( <= ( + X2 84 ) X11 )  ( <= ( + X11 84 ) X2 )  ( <= ( + Y2 28 ) Y11 )  ( <= ( + Y11 92 ) Y2 )  )
( or ( <= ( + X3 13 ) X4 )  ( <= ( + X4 33 ) X3 )  ( <= ( + Y3 48 ) Y4 )  ( <= ( + Y4 63 ) Y3 )  )
( or ( <= ( + X3 13 ) X5 )  ( <= ( + X5 71 ) X3 )  ( <= ( + Y3 48 ) Y5 )  ( <= ( + Y5 76 ) Y3 )  )
( or ( <= ( + X3 13 ) X6 )  ( <= ( + X6 25 ) X3 )  ( <= ( + Y3 48 ) Y6 )  ( <= ( + Y6 76 ) Y3 )  )
( or ( <= ( + X3 13 ) X7 )  ( <= ( + X7 63 ) X3 )  ( <= ( + Y3 48 ) Y7 )  ( <= ( + Y7 13 ) Y3 )  )
( or ( <= ( + X3 13 ) X8 )  ( <= ( + X8 10 ) X3 )  ( <= ( + Y3 48 ) Y8 )  ( <= ( + Y8 82 ) Y3 )  )
( or ( <= ( + X3 13 ) X9 )  ( <= ( + X9 61 ) X3 )  ( <= ( + Y3 48 ) Y9 )  ( <= ( + Y9 32 ) Y3 )  )
( or ( <= ( + X3 13 ) X10 )  ( <= ( + X10 82 ) X3 )  ( <= ( + Y3 48 ) Y10 )  ( <= ( + Y10 31 ) Y3 )  )
( or ( <= ( + X3 13 ) X11 )  ( <= ( + X11 84 ) X3 )  ( <= ( + Y3 48 ) Y11 )  ( <= ( + Y11 92 ) Y3 )  )
( or ( <= ( + X4 33 ) X5 )  ( <= ( + X5 71 ) X4 )  ( <= ( + Y4 63 ) Y5 )  ( <= ( + Y5 76 ) Y4 )  )
( or ( <= ( + X4 33 ) X6 )  ( <= ( + X6 25 ) X4 )  ( <= ( + Y4 63 ) Y6 )  ( <= ( + Y6 76 ) Y4 )  )
( or ( <= ( + X4 33 ) X7 )  ( <= ( + X7 63 ) X4 )  ( <= ( + Y4 63 ) Y7 )  ( <= ( + Y7 13 ) Y4 )  )
( or ( <= ( + X4 33 ) X8 )  ( <= ( + X8 10 ) X4 )  ( <= ( + Y4 63 ) Y8 )  ( <= ( + Y8 82 ) Y4 )  )
( or ( <= ( + X4 33 ) X9 )  ( <= ( + X9 61 ) X4 )  ( <= ( + Y4 63 ) Y9 )  ( <= ( + Y9 32 ) Y4 )  )
( or ( <= ( + X4 33 ) X10 )  ( <= ( + X10 82 ) X4 )  ( <= ( + Y4 63 ) Y10 )  ( <= ( + Y10 31 ) Y4 )  )
( or ( <= ( + X4 33 ) X11 )  ( <= ( + X11 84 ) X4 )  ( <= ( + Y4 63 ) Y11 )  ( <= ( + Y11 92 ) Y4 )  )
( or ( <= ( + X5 71 ) X6 )  ( <= ( + X6 25 ) X5 )  ( <= ( + Y5 76 ) Y6 )  ( <= ( + Y6 76 ) Y5 )  )
( or ( <= ( + X5 71 ) X7 )  ( <= ( + X7 63 ) X5 )  ( <= ( + Y5 76 ) Y7 )  ( <= ( + Y7 13 ) Y5 )  )
( or ( <= ( + X5 71 ) X8 )  ( <= ( + X8 10 ) X5 )  ( <= ( + Y5 76 ) Y8 )  ( <= ( + Y8 82 ) Y5 )  )
( or ( <= ( + X5 71 ) X9 )  ( <= ( + X9 61 ) X5 )  ( <= ( + Y5 76 ) Y9 )  ( <= ( + Y9 32 ) Y5 )  )
( or ( <= ( + X5 71 ) X10 )  ( <= ( + X10 82 ) X5 )  ( <= ( + Y5 76 ) Y10 )  ( <= ( + Y10 31 ) Y5 )  )
( or ( <= ( + X5 71 ) X11 )  ( <= ( + X11 84 ) X5 )  ( <= ( + Y5 76 ) Y11 )  ( <= ( + Y11 92 ) Y5 )  )
( or ( <= ( + X6 25 ) X7 )  ( <= ( + X7 63 ) X6 )  ( <= ( + Y6 76 ) Y7 )  ( <= ( + Y7 13 ) Y6 )  )
( or ( <= ( + X6 25 ) X8 )  ( <= ( + X8 10 ) X6 )  ( <= ( + Y6 76 ) Y8 )  ( <= ( + Y8 82 ) Y6 )  )
( or ( <= ( + X6 25 ) X9 )  ( <= ( + X9 61 ) X6 )  ( <= ( + Y6 76 ) Y9 )  ( <= ( + Y9 32 ) Y6 )  )
( or ( <= ( + X6 25 ) X10 )  ( <= ( + X10 82 ) X6 )  ( <= ( + Y6 76 ) Y10 )  ( <= ( + Y10 31 ) Y6 )  )
( or ( <= ( + X6 25 ) X11 )  ( <= ( + X11 84 ) X6 )  ( <= ( + Y6 76 ) Y11 )  ( <= ( + Y11 92 ) Y6 )  )
( or ( <= ( + X7 63 ) X8 )  ( <= ( + X8 10 ) X7 )  ( <= ( + Y7 13 ) Y8 )  ( <= ( + Y8 82 ) Y7 )  )
( or ( <= ( + X7 63 ) X9 )  ( <= ( + X9 61 ) X7 )  ( <= ( + Y7 13 ) Y9 )  ( <= ( + Y9 32 ) Y7 )  )
( or ( <= ( + X7 63 ) X10 )  ( <= ( + X10 82 ) X7 )  ( <= ( + Y7 13 ) Y10 )  ( <= ( + Y10 31 ) Y7 )  )
( or ( <= ( + X7 63 ) X11 )  ( <= ( + X11 84 ) X7 )  ( <= ( + Y7 13 ) Y11 )  ( <= ( + Y11 92 ) Y7 )  )
( or ( <= ( + X8 10 ) X9 )  ( <= ( + X9 61 ) X8 )  ( <= ( + Y8 82 ) Y9 )  ( <= ( + Y9 32 ) Y8 )  )
( or ( <= ( + X8 10 ) X10 )  ( <= ( + X10 82 ) X8 )  ( <= ( + Y8 82 ) Y10 )  ( <= ( + Y10 31 ) Y8 )  )
( or ( <= ( + X8 10 ) X11 )  ( <= ( + X11 84 ) X8 )  ( <= ( + Y8 82 ) Y11 )  ( <= ( + Y11 92 ) Y8 )  )
( or ( <= ( + X9 61 ) X10 )  ( <= ( + X10 82 ) X9 )  ( <= ( + Y9 32 ) Y10 )  ( <= ( + Y10 31 ) Y9 )  )
( or ( <= ( + X9 61 ) X11 )  ( <= ( + X11 84 ) X9 )  ( <= ( + Y9 32 ) Y11 )  ( <= ( + Y11 92 ) Y9 )  )
( or ( <= ( + X10 82 ) X11 )  ( <= ( + X11 84 ) X10 )  ( <= ( + Y10 31 ) Y11 )  ( <= ( + Y11 92 ) Y10 )  )
( >= X0 0)
( <= ( + X0 13) Z)
( >= Y0 0)
( <= ( + Y0 9 ) 100)
( >= X1 0)
( <= ( + X1 23) Z)
( >= Y1 0)
( <= ( + Y1 5 ) 100)
( >= X2 0)
( <= ( + X2 84) Z)
( >= Y2 0)
( <= ( + Y2 28 ) 100)
( >= X3 0)
( <= ( + X3 13) Z)
( >= Y3 0)
( <= ( + Y3 48 ) 100)
( >= X4 0)
( <= ( + X4 33) Z)
( >= Y4 0)
( <= ( + Y4 63 ) 100)
( >= X5 0)
( <= ( + X5 71) Z)
( >= Y5 0)
( <= ( + Y5 76 ) 100)
( >= X6 0)
( <= ( + X6 25) Z)
( >= Y6 0)
( <= ( + Y6 76 ) 100)
( >= X7 0)
( <= ( + X7 63) Z)
( >= Y7 0)
( <= ( + Y7 13 ) 100)
( >= X8 0)
( <= ( + X8 10) Z)
( >= Y8 0)
( <= ( + Y8 82 ) 100)
( >= X9 0)
( <= ( + X9 61) Z)
( >= Y9 0)
( <= ( + Y9 32 ) 100)
( >= X10 0)
( <= ( + X10 82) Z)
( >= Y10 0)
( <= ( + Y10 31 ) 100)
( >= X11 0)
( <= ( + X11 84) Z)
( >= Y11 0)
( <= ( + Y11 92 ) 100)
) )
(minimize Z)
(check-sat)
